column=9;
row=9;
left=[0, 0, 4, 0, 0, 0, 0, 2, 0];
right=[0, 0, 0, 0, 0, 0, 0, 0, 3];
top=[0, 4, 0, 2, 0, 0, 4, 0, 4];
bottom=[0, 0, 0, 0, 1, 0, 0, 3, 0];
Board=[|9,0,0,7,0,6,0,5,0|0,0,3,0,0,0,1,6,0|0,0,0,0,0,4,0,0,0|0,0,0,0,5,0,8,0,0|8,0,0,6,4,0,0,1,9|0,0,4,0,8,9,0,2,0|0,2,0,8,0,1,9,0,0|3,0,0,4,0,0,2,0,6|0,8,5,0,0,3,0,0,0|]